1,1,5,2,2,3,8,2,3,4,9,2,6,2,7,4,4,4,10,5;8,1,3,1,2,4,1,3,10,3,7,2,6,1,4,2,9,4,5,5;2,2,3,2,10,2,4,1,9,3,8,3,5,4,1,5,7,5,6,5;1,2,5,3,2,5,7,3,10,4,3,5,9,5,8,4,6,4,4,5;5,1,2,1,9,1,10,1,7,1,3,3,1,4,4,3,6,3,8,5;
